p cnf 420 640
5 45 -56 101 102 0
5 45 -56 101 -102 0
5 45 -56 -101 102 0
5 45 -56 -101 -102 0
-5 45 60 103 104 0
-5 45 60 103 -104 0
-5 45 60 -103 104 0
-5 45 60 -103 -104 0
-5 45 -60 105 106 0
-5 45 -60 105 -106 0
-5 45 -60 -105 106 0
-5 45 -60 -105 -106 0
-45 -56 64 107 108 0
-45 -56 64 107 -108 0
-45 -56 64 -107 108 0
-45 -56 64 -107 -108 0
-45 61 -64 109 110 0
-45 61 -64 109 -110 0
-45 61 -64 -109 110 0
-45 61 -64 -109 -110 0
-56 -61 -64 111 112 0
-56 -61 -64 111 -112 0
-56 -61 -64 -111 112 0
-56 -61 -64 -111 -112 0
28 56 97 113 114 0
28 56 97 113 -114 0
28 56 97 -113 114 0
28 56 97 -113 -114 0
28 56 -97 115 116 0
28 56 -97 115 -116 0
28 56 -97 -115 116 0
28 56 -97 -115 -116 0
-17 -28 56 117 118 0
-17 -28 56 117 -118 0
-17 -28 56 -117 118 0
-17 -28 56 -117 -118 0
17 -28 -72 119 120 0
17 -28 -72 119 -120 0
17 -28 -72 -119 120 0
17 -28 -72 -119 -120 0
17 62 72 121 122 0
17 62 72 121 -122 0
17 62 72 -121 122 0
17 62 72 -121 -122 0
-48 -62 72 123 124 0
-48 -62 72 123 -124 0
-48 -62 72 -123 124 0
-48 -62 72 -123 -124 0
48 -62 91 125 126 0
48 -62 91 125 -126 0
48 -62 91 -125 126 0
48 -62 91 -125 -126 0
11 48 -91 127 128 0
11 48 -91 127 -128 0
11 48 -91 -127 128 0
11 48 -91 -127 -128 0
-11 -63 -91 129 130 0
-11 -63 -91 129 -130 0
-11 -63 -91 -129 130 0
-11 -63 -91 -129 -130 0
-11 -69 -91 131 132 0
-11 -69 -91 131 -132 0
-11 -69 -91 -131 132 0
-11 -69 -91 -131 -132 0
-11 50 69 133 134 0
-11 50 69 133 -134 0
-11 50 69 -133 134 0
-11 50 69 -133 -134 0
-8 -50 69 135 136 0
-8 -50 69 135 -136 0
-8 -50 69 -135 136 0
-8 -50 69 -135 -136 0
41 -50 69 137 138 0
41 -50 69 137 -138 0
41 -50 69 -137 138 0
41 -50 69 -137 -138 0
8 31 -41 139 140 0
8 31 -41 139 -140 0
8 31 -41 -139 140 0
8 31 -41 -139 -140 0
8 31 -48 141 142 0
8 31 -48 141 -142 0
8 31 -48 -141 142 0
8 31 -48 -141 -142 0
-31 -41 44 143 144 0
-31 -41 44 143 -144 0
-31 -41 44 -143 144 0
-31 -41 44 -143 -144 0
-31 -41 -67 145 146 0
-31 -41 -67 145 -146 0
-31 -41 -67 -145 146 0
-31 -41 -67 -145 -146 0
14 -44 67 147 148 0
14 -44 67 147 -148 0
14 -44 67 -147 148 0
14 -44 67 -147 -148 0
-14 -44 89 149 150 0
-14 -44 89 149 -150 0
-14 -44 89 -149 150 0
-14 -44 89 -149 -150 0
-44 -52 89 151 152 0
-44 -52 89 151 -152 0
-44 -52 89 -151 152 0
-44 -52 89 -151 -152 0
-14 57 -89 153 154 0
-14 57 -89 153 -154 0
-14 57 -89 -153 154 0
-14 57 -89 -153 -154 0
-14 85 -89 155 156 0
-14 85 -89 155 -156 0
-14 85 -89 -155 156 0
-14 85 -89 -155 -156 0
1 -14 -57 157 158 0
1 -14 -57 157 -158 0
1 -14 -57 -157 158 0
1 -14 -57 -157 -158 0
-1 -5 -85 159 160 0
-1 -5 -85 159 -160 0
-1 -5 -85 -159 160 0
-1 -5 -85 -159 -160 0
-1 5 -79 161 162 0
-1 5 -79 161 -162 0
-1 5 -79 -161 162 0
-1 5 -79 -161 -162 0
-1 3 79 163 164 0
-1 3 79 163 -164 0
-1 3 79 -163 164 0
-1 3 79 -163 -164 0
-1 -3 -76 165 166 0
-1 -3 -76 165 -166 0
-1 -3 -76 -165 166 0
-1 -3 -76 -165 -166 0
-3 79 -83 167 168 0
-3 79 -83 167 -168 0
-3 79 -83 -167 168 0
-3 79 -83 -167 -168 0
76 82 83 169 170 0
76 82 83 169 -170 0
76 82 83 -169 170 0
76 82 83 -169 -170 0
-4 -82 83 171 172 0
-4 -82 83 171 -172 0
-4 -82 83 -171 172 0
-4 -82 83 -171 -172 0
4 -43 -82 173 174 0
4 -43 -82 173 -174 0
4 -43 -82 -173 174 0
4 -43 -82 -173 -174 0
43 80 87 175 176 0
43 80 87 175 -176 0
43 80 87 -175 176 0
43 80 87 -175 -176 0
4 -80 -82 177 178 0
4 -80 -82 177 -178 0
4 -80 -82 -177 178 0
4 -80 -82 -177 -178 0
-4 -80 87 179 180 0
-4 -80 87 179 -180 0
-4 -80 87 -179 180 0
-4 -80 87 -179 -180 0
43 -74 -87 181 182 0
43 -74 -87 181 -182 0
43 -74 -87 -181 182 0
43 -74 -87 -181 -182 0
2 74 78 183 184 0
2 74 78 183 -184 0
2 74 78 -183 184 0
2 74 78 -183 -184 0
74 77 78 185 186 0
74 77 78 185 -186 0
74 77 78 -185 186 0
74 77 78 -185 -186 0
-77 78 -87 187 188 0
-77 78 -87 187 -188 0
-77 78 -87 -187 188 0
-77 78 -87 -187 -188 0
42 74 -78 189 190 0
42 74 -78 189 -190 0
42 74 -78 -189 190 0
42 74 -78 -189 -190 0
-42 -45 -78 191 192 0
-42 -45 -78 191 -192 0
-42 -45 -78 -191 192 0
-42 -45 -78 -191 -192 0
-22 -42 74 193 194 0
-22 -42 74 193 -194 0
-22 -42 74 -193 194 0
-22 -42 74 -193 -194 0
22 -42 81 195 196 0
22 -42 81 195 -196 0
22 -42 81 -195 196 0
22 -42 81 -195 -196 0
22 27 -81 197 198 0
22 27 -81 197 -198 0
22 27 -81 -197 198 0
22 27 -81 -197 -198 0
-27 -81 88 199 200 0
-27 -81 88 199 -200 0
-27 -81 88 -199 200 0
-27 -81 88 -199 -200 0
-39 -81 -88 201 202 0
-39 -81 -88 201 -202 0
-39 -81 -88 -201 202 0
-39 -81 -88 -201 -202 0
39 -77 -88 203 204 0
39 -77 -88 203 -204 0
39 -77 -88 -203 204 0
39 -77 -88 -203 -204 0
-26 39 77 205 206 0
-26 39 77 205 -206 0
-26 39 77 -205 206 0
-26 39 77 -205 -206 0
26 38 39 207 208 0
26 38 39 207 -208 0
26 38 39 -207 208 0
26 38 39 -207 -208 0
26 -38 54 209 210 0
26 -38 54 209 -210 0
26 -38 54 -209 210 0
26 -38 54 -209 -210 0
-38 -54 -60 211 212 0
-38 -54 -60 211 -212 0
-38 -54 -60 -211 212 0
-38 -54 -60 -211 -212 0
2 -38 -54 213 214 0
2 -38 -54 213 -214 0
2 -38 -54 -213 214 0
2 -38 -54 -213 -214 0
-2 60 94 215 216 0
-2 60 94 215 -216 0
-2 60 94 -215 216 0
-2 60 94 -215 -216 0
-2 -94 -96 217 218 0
-2 -94 -96 217 -218 0
-2 -94 -96 -217 218 0
-2 -94 -96 -217 -218 0
-55 -94 96 219 220 0
-55 -94 96 219 -220 0
-55 -94 96 -219 220 0
-55 -94 96 -219 -220 0
-52 55 96 221 222 0
-52 55 96 221 -222 0
-52 55 96 -221 222 0
-52 55 96 -221 -222 0
25 55 -86 223 224 0
25 55 -86 223 -224 0
25 55 -86 -223 224 0
25 55 -86 -223 -224 0
52 55 -86 225 226 0
52 55 -86 225 -226 0
52 55 -86 -225 226 0
52 55 -86 -225 -226 0
29 52 86 227 228 0
29 52 86 227 -228 0
29 52 86 -227 228 0
29 52 86 -227 -228 0
1 16 86 229 230 0
1 16 86 229 -230 0
1 16 86 -229 230 0
1 16 86 -229 -230 0
16 -29 86 231 232 0
16 -29 86 231 -232 0
16 -29 86 -231 232 0
16 -29 86 -231 -232 0
-16 20 -29 233 234 0
-16 20 -29 233 -234 0
-16 20 -29 -233 234 0
-16 20 -29 -233 -234 0
-16 -20 92 235 236 0
-16 -20 92 235 -236 0
-16 -20 92 -235 236 0
-16 -20 92 -235 -236 0
-20 -68 -92 237 238 0
-20 -68 -92 237 -238 0
-20 -68 -92 -237 238 0
-20 -68 -92 -237 -238 0
22 68 90 239 240 0
22 68 90 239 -240 0
22 68 90 -239 240 0
22 68 90 -239 -240 0
-22 90 -92 241 242 0
-22 90 -92 241 -242 0
-22 90 -92 -241 242 0
-22 90 -92 -241 -242 0
68 -73 -90 243 244 0
68 -73 -90 243 -244 0
68 -73 -90 -243 244 0
68 -73 -90 -243 -244 0
49 -53 -90 245 246 0
49 -53 -90 245 -246 0
49 -53 -90 -245 246 0
49 -53 -90 -245 -246 0
-49 -53 73 247 248 0
-49 -53 73 247 -248 0
-49 -53 73 -247 248 0
-49 -53 73 -247 -248 0
53 61 73 249 250 0
53 61 73 249 -250 0
53 61 73 -249 250 0
53 61 73 -249 -250 0
53 -61 -93 251 252 0
53 -61 -93 251 -252 0
53 -61 -93 -251 252 0
53 -61 -93 -251 -252 0
46 -59 93 253 254 0
46 -59 93 253 -254 0
46 -59 93 -253 254 0
46 -59 93 -253 -254 0
-46 -59 93 255 256 0
-46 -59 93 255 -256 0
-46 -59 93 -255 256 0
-46 -59 93 -255 -256 0
15 59 -61 257 258 0
15 59 -61 257 -258 0
15 59 -61 -257 258 0
15 59 -61 -257 -258 0
-15 -61 -66 259 260 0
-15 -61 -66 259 -260 0
-15 -61 -66 -259 260 0
-15 -61 -66 -259 -260 0
-15 -64 66 261 262 0
-15 -64 66 261 -262 0
-15 -64 66 -261 262 0
-15 -64 66 -261 -262 0
64 65 66 263 264 0
64 65 66 263 -264 0
64 65 66 -263 264 0
64 65 66 -263 -264 0
6 64 -65 265 266 0
6 64 -65 265 -266 0
6 64 -65 -265 266 0
6 64 -65 -265 -266 0
-6 58 -65 267 268 0
-6 58 -65 267 -268 0
-6 58 -65 -267 268 0
-6 58 -65 -267 -268 0
-6 24 -58 269 270 0
-6 24 -58 269 -270 0
-6 24 -58 -269 270 0
-6 24 -58 -269 -270 0
23 -24 -58 271 272 0
23 -24 -58 271 -272 0
23 -24 -58 -271 272 0
23 -24 -58 -271 -272 0
-23 -58 -71 273 274 0
-23 -58 -71 273 -274 0
-23 -58 -71 -273 274 0
-23 -58 -71 -273 -274 0
-23 33 71 275 276 0
-23 33 71 275 -276 0
-23 33 71 -275 276 0
-23 33 71 -275 -276 0
30 -33 71 277 278 0
30 -33 71 277 -278 0
30 -33 71 -277 278 0
30 -33 71 -277 -278 0
-30 -33 -46 279 280 0
-30 -33 -46 279 -280 0
-30 -33 -46 -279 280 0
-30 -33 -46 -279 -280 0
-30 35 46 281 282 0
-30 35 46 281 -282 0
-30 35 46 -281 282 0
-30 35 46 -281 -282 0
25 -35 46 283 284 0
25 -35 46 283 -284 0
25 -35 46 -283 284 0
25 -35 46 -283 -284 0
-25 -35 49 285 286 0
-25 -35 49 285 -286 0
-25 -35 49 -285 286 0
-25 -35 49 -285 -286 0
-25 -49 75 287 288 0
-25 -49 75 287 -288 0
-25 -49 75 -287 288 0
-25 -49 75 -287 -288 0
9 -25 -75 289 290 0
9 -25 -75 289 -290 0
9 -25 -75 -289 290 0
9 -25 -75 -289 -290 0
-9 -12 -75 291 292 0
-9 -12 -75 291 -292 0
-9 -12 -75 -291 292 0
-9 -12 -75 -291 -292 0
-9 12 98 293 294 0
-9 12 98 293 -294 0
-9 12 98 -293 294 0
-9 12 98 -293 -294 0
12 -97 -98 295 296 0
12 -97 -98 295 -296 0
12 -97 -98 -295 296 0
12 -97 -98 -295 -296 0
12 13 -98 297 298 0
12 13 -98 297 -298 0
12 13 -98 -297 298 0
12 13 -98 -297 -298 0
79 -95 97 299 300 0
79 -95 97 299 -300 0
79 -95 97 -299 300 0
79 -95 97 -299 -300 0
-13 -79 -95 301 302 0
-13 -79 -95 301 -302 0
-13 -79 -95 -301 302 0
-13 -79 -95 -301 -302 0
-13 -18 95 303 304 0
-13 -18 95 303 -304 0
-13 -18 95 -303 304 0
-13 -18 95 -303 -304 0
18 51 95 305 306 0
18 51 95 305 -306 0
18 51 95 -305 306 0
18 51 95 -305 -306 0
-37 -51 85 307 308 0
-37 -51 85 307 -308 0
-37 -51 85 -307 308 0
-37 -51 85 -307 -308 0
18 -37 -85 309 310 0
18 -37 -85 309 -310 0
18 -37 -85 -309 310 0
18 -37 -85 -309 -310 0
-21 37 -51 311 312 0
-21 37 -51 311 -312 0
-21 37 -51 -311 312 0
-21 37 -51 -311 -312 0
21 36 -51 313 314 0
21 36 -51 313 -314 0
21 36 -51 -313 314 0
21 36 -51 -313 -314 0
27 -36 -47 315 316 0
27 -36 -47 315 -316 0
27 -36 -47 -315 316 0
27 -36 -47 -315 -316 0
21 -27 -47 317 318 0
21 -27 -47 317 -318 0
21 -27 -47 -317 318 0
21 -27 -47 -317 -318 0
7 -36 76 319 320 0
7 -36 76 319 -320 0
7 -36 76 -319 320 0
7 -36 76 -319 -320 0
7 47 -76 321 322 0
7 47 -76 321 -322 0
7 47 -76 -321 322 0
7 47 -76 -321 -322 0
-7 -19 -36 323 324 0
-7 -19 -36 323 -324 0
-7 -19 -36 -323 324 0
-7 -19 -36 -323 -324 0
47 54 -100 325 326 0
47 54 -100 325 -326 0
47 54 -100 -325 326 0
47 54 -100 -325 -326 0
-7 47 -100 327 328 0
-7 47 -100 327 -328 0
-7 47 -100 -327 328 0
-7 47 -100 -327 -328 0
19 -34 47 329 330 0
19 -34 47 329 -330 0
19 -34 47 -329 330 0
19 -34 47 -329 -330 0
19 32 34 331 332 0
19 32 34 331 -332 0
19 32 34 -331 332 0
19 32 34 -331 -332 0
-32 34 70 333 334 0
-32 34 70 333 -334 0
-32 34 70 -333 334 0
-32 34 70 -333 -334 0
-32 -70 99 335 336 0
-32 -70 99 335 -336 0
-32 -70 99 -335 336 0
-32 -70 99 -335 -336 0
-70 -80 -99 337 338 0
-70 -80 -99 337 -338 0
-70 -80 -99 -337 338 0
-70 -80 -99 -337 -338 0
-40 80 -99 339 340 0
-40 80 -99 339 -340 0
-40 80 -99 -339 340 0
-40 80 -99 -339 -340 0
40 84 -99 341 342 0
40 84 -99 341 -342 0
40 84 -99 -341 342 0
40 84 -99 -341 -342 0
-10 40 -84 343 344 0
-10 40 -84 343 -344 0
-10 40 -84 -343 344 0
-10 40 -84 -343 -344 0
-10 -26 -84 345 346 0
-10 -26 -84 345 -346 0
-10 -26 -84 -345 346 0
-10 -26 -84 -345 -346 0
-39 -69 -76 347 348 0
-39 -69 -76 347 -348 0
-39 -69 -76 -347 348 0
-39 -69 -76 -347 -348 0
23 63 70 349 350 0
23 63 70 349 -350 0
23 63 70 -349 350 0
23 63 70 -349 -350 0
11 15 20 351 352 0
11 15 20 351 -352 0
11 15 20 -351 352 0
11 15 20 -351 -352 0
41 42 -96 353 354 0
41 42 -96 353 -354 0
41 42 -96 -353 354 0
41 42 -96 -353 -354 0
-40 63 88 355 356 0
-40 63 88 355 -356 0
-40 63 88 -355 356 0
-40 63 88 -355 -356 0
33 -66 90 357 358 0
33 -66 90 357 -358 0
33 -66 90 -357 358 0
33 -66 90 -357 -358 0
-12 -43 -72 359 360 0
-12 -43 -72 359 -360 0
-12 -43 -72 -359 360 0
-12 -43 -72 -359 -360 0
37 49 65 361 362 0
37 49 65 361 -362 0
37 49 65 -361 362 0
37 49 65 -361 -362 0
-21 -69 84 363 364 0
-21 -69 84 363 -364 0
-21 -69 84 -363 364 0
-21 -69 84 -363 -364 0
-34 59 81 365 366 0
-34 59 81 365 -366 0
-34 59 81 -365 366 0
-34 59 81 -365 -366 0
-18 -57 -74 367 368 0
-18 -57 -74 367 -368 0
-18 -57 -74 -367 368 0
-18 -57 -74 -367 -368 0
-59 -83 99 369 370 0
-59 -83 99 369 -370 0
-59 -83 99 -369 370 0
-59 -83 99 -369 -370 0
3 -68 75 371 372 0
3 -68 75 371 -372 0
3 -68 75 -371 372 0
3 -68 75 -371 -372 0
6 24 36 373 374 0
6 24 36 373 -374 0
6 24 36 -373 374 0
6 24 36 -373 -374 0
30 -34 50 375 376 0
30 -34 50 375 -376 0
30 -34 50 -375 376 0
30 -34 50 -375 -376 0
10 35 100 377 378 0
10 35 100 377 -378 0
10 35 100 -377 378 0
10 35 100 -377 -378 0
5 -55 100 379 380 0
5 -55 100 379 -380 0
5 -55 100 -379 380 0
5 -55 100 -379 -380 0
9 10 -17 381 382 0
9 10 -17 381 -382 0
9 10 -17 -381 382 0
9 10 -17 -381 -382 0
-19 57 67 383 384 0
-19 57 67 383 -384 0
-19 57 67 -383 384 0
-19 57 67 -383 -384 0
-8 13 84 385 386 0
-8 13 84 385 -386 0
-8 13 84 -385 386 0
-8 13 84 -385 -386 0
58 -73 90 387 388 0
58 -73 90 387 -388 0
58 -73 90 -387 388 0
58 -73 90 -387 -388 0
19 32 -100 389 390 0
19 32 -100 389 -390 0
19 32 -100 -389 390 0
19 32 -100 -389 -390 0
-24 -43 -66 391 392 0
-24 -43 -66 391 -392 0
-24 -43 -66 -391 392 0
-24 -43 -66 -391 -392 0
-8 -71 91 393 394 0
-8 -71 91 393 -394 0
-8 -71 91 -393 394 0
-8 -71 91 -393 -394 0
49 -60 82 395 396 0
49 -60 82 395 -396 0
49 -60 82 -395 396 0
49 -60 82 -395 -396 0
82 98 100 397 398 0
82 98 100 397 -398 0
82 98 100 -397 398 0
82 98 100 -397 -398 0
14 -34 35 399 400 0
14 -34 35 399 -400 0
14 -34 35 -399 400 0
14 -34 35 -399 -400 0
36 38 -93 401 402 0
36 38 -93 401 -402 0
36 38 -93 -401 402 0
36 38 -93 -401 -402 0
15 44 -67 403 404 0
15 44 -67 403 -404 0
15 44 -67 -403 404 0
15 44 -67 -403 -404 0
11 51 62 405 406 0
11 51 62 405 -406 0
11 51 62 -405 406 0
11 51 62 -405 -406 0
38 84 91 407 408 0
38 84 91 407 -408 0
38 84 91 -407 408 0
38 84 91 -407 -408 0
-63 -68 -83 409 410 0
-63 -68 -83 409 -410 0
-63 -68 -83 -409 410 0
-63 -68 -83 -409 -410 0
27 44 58 411 412 0
27 44 58 411 -412 0
27 44 58 -411 412 0
27 44 58 -411 -412 0
7 67 -93 413 414 0
7 67 -93 413 -414 0
7 67 -93 -413 414 0
7 67 -93 -413 -414 0
29 -47 -93 415 416 0
29 -47 -93 415 -416 0
29 -47 -93 -415 416 0
29 -47 -93 -415 -416 0
44 92 94 417 418 0
44 92 94 417 -418 0
44 92 94 -417 418 0
44 92 94 -417 -418 0
-39 -47 82 419 420 0
-39 -47 82 419 -420 0
-39 -47 82 -419 420 0
-39 -47 82 -419 -420 0
